c   #vars: 111   #clauses: 516   #literals: 1421
c 
p cnf 111 516
-1 -2 0
-3 -4 0
30 31 75 76 0
79 80 98 99 0
-5 -6 0
30 31 94 95 0
-7 -8 0
-9 -10 0
13 14 104 105 0
-11 -12 0
-13 -14 0
-15 -16 0
36 56 57 -71 0
-18 -19 0
-20 -21 0
-22 -23 0
-24 -25 0
-45 53 104 105 0
-26 -27 0
-28 -29 0
43 44 86 87 0
37 82 83 -88 0
-30 -31 0
-32 -33 0
-34 -35 0
37 -82 88 89 0
34 35 45 -53 0
51 52 -77 93 0
84 85 94 95 0
54 55 86 87 0
-39 -40 0
-41 -42 0
-43 -44 0
26 27 46 -82 0
60 61 66 -91 0
-47 -48 0
-49 -50 0
-51 -52 0
-54 -55 0
94 95 98 99 0
34 35 94 95 0
-56 -57 0
-58 -59 0
-60 -61 0
-62 -63 0
22 23 75 76 0
62 63 75 76 0
-64 -65 0
-48 68 79 80 0
20 21 -75 81 0
-69 -70 0
-71 -72 0
-73 -74 0
-75 -76 0
-79 -80 0
11 12 90 -110 0
-82 -83 0
1 2 106 107 0
-84 -85 0
75 76 82 83 0
-86 -87 0
-88 -89 0
34 35 56 57 0
-91 -92 0
-94 -95 0
-96 -97 0
-98 -99 0
-100 -101 0
-102 -103 0
86 87 110 111 0
11 12 96 97 0
-104 -105 0
3 4 102 103 0
-106 -107 0
34 35 98 99 0
-108 -109 0
-110 -111 0
-1 -7 0
-2 -8 0
11 12 102 103 0
-51 77 78 93 0
-1 -18 0
-2 -19 0
-10 45 -104 0
-37 68 79 80 0
-2 -66 0
-1 -79 0
-2 -80 0
11 12 62 63 0
-1 -94 0
-2 -95 0
3 4 15 16 0
-1 -106 0
-2 -107 0
-3 -15 0
-4 -16 0
3 4 20 21 0
-3 -20 0
-4 -21 0
5 6 20 21 0
-3 -47 0
-4 -48 0
-60 90 110 111 0
-3 -49 0
-4 -50 0
-3 -96 0
-4 -97 0
-3 -102 0
-4 -103 0
60 61 64 65 0
-26 41 42 46 0
41 42 46 -82 0
-5 -20 0
-6 -21 0
-5 -73 0
-6 -74 0
1 2 -60 66 0
-5 -84 0
-6 -85 0
36 -56 62 63 0
-5 -108 0
-6 -109 0
69 70 106 107 0
15 16 38 -91 0
9 10 53 -104 0
15 16 -24 38 0
-51 75 76 93 0
-7 -30 0
-8 -31 0
18 19 34 35 0
-7 -62 0
-8 -63 0
-9 17 22 23 0
11 12 -60 90 0
-8 -81 0
30 31 79 80 0
36 56 57 -62 0
-10 -17 0
-9 -28 0
-10 -29 0
39 40 54 55 0
-9 -45 0
26 27 -41 46 0
24 25 38 -91 0
-10 -53 0
5 6 108 109 0
-9 -108 0
-10 -109 0
11 12 49 50 0
-22 62 63 67 0
18 19 69 70 0
-11 -13 0
-12 -14 0
-11 -49 0
-12 -50 0
26 27 77 78 0
-11 -62 0
-12 -63 0
41 42 84 85 0
-11 -79 0
-12 -80 0
-12 -90 0
20 21 41 42 0
-11 -96 0
-12 -97 0
43 44 104 105 0
-11 -102 0
-12 -103 0
84 85 110 111 0
-13 -41 0
-14 -42 0
51 52 86 87 0
-13 -51 0
-14 -52 0
20 21 39 40 0
-13 -104 0
-14 -105 0
-13 -106 0
-14 -107 0
-24 38 91 92 0
62 63 67 -77 0
51 52 -75 93 0
-16 -38 0
28 29 84 85 0
-15 -43 0
-16 -44 0
3 4 96 97 0
-15 -47 0
-16 -48 0
36 -62 71 72 0
-17 -23 0
36 -56 71 72 0
-17 -65 0
5 6 73 74 0
-18 -34 0
-19 -35 0
-9 -35 45 53 0
-18 -69 0
-19 -70 0
-18 -79 0
-19 -80 0
39 40 106 107 0
-18 -94 0
-19 -95 0
36 62 63 -71 0
-20 -39 0
-21 -40 0
22 23 32 33 0
-20 -41 0
-21 -42 0
94 95 100 101 0
60 61 90 -110 0
-21 -81 0
-22 -32 0
-23 -33 0
26 27 43 44 0
-22 -39 0
-23 -40 0
1 2 66 -91 0
-22 -49 0
-23 -50 0
9 10 -45 53 0
-23 -67 0
-22 -75 0
-23 -76 0
9 10 28 29 0
-24 -32 0
-25 -33 0
-24 -34 0
-25 -35 0
17 -22 64 65 0
-25 -38 0
91 92 108 109 0
-24 -77 0
-25 -78 0
71 72 110 111 0
-24 -104 0
-25 -105 0
-9 53 104 105 0
17 22 23 -64 0
-9 17 64 65 0
71 72 100 101 0
-26 -43 0
-27 -44 0
22 23 -62 67 0
-1 60 61 66 0
-27 -46 0
-26 -49 0
-27 -50 0
3 4 47 48 0
-26 -60 0
-27 -61 0
47 48 100 101 0
-26 -77 0
-27 -78 0
7 8 30 31 0
-28 -58 0
-29 -59 0
30 31 88 89 0
-28 -84 0
-29 -85 0
58 59 110 111 0
-28 -98 0
-29 -99 0
86 87 102 103 0
-28 -108 0
-29 -109 0
64 65 82 83 0
22 23 67 -77 0
47 48 64 65 0
24 25 32 33 0
-30 -75 0
-31 -76 0
-30 -79 0
-31 -80 0
-75 77 78 93 0
-30 -88 0
-31 -89 0
1 2 79 80 0
-30 -94 0
-31 -95 0
15 16 47 48 0
32 33 43 44 0
-32 -43 0
-33 -44 0
15 16 43 44 0
-32 -75 0
-33 -76 0
64 65 71 72 0
-34 -45 0
-41 46 82 83 0
49 50 58 59 0
-34 -56 0
-35 -57 0
39 40 51 52 0
41 42 96 97 0
-34 -64 0
-35 -65 0
-34 -94 0
-35 -95 0
96 97 108 109 0
-34 -98 0
-35 -99 0
37 -68 88 89 0
-36 -57 0
18 19 79 80 0
-7 75 76 81 0
-36 -63 0
11 12 79 80 0
-20 75 76 81 0
-36 -72 0
54 55 73 74 0
-10 34 35 45 0
-7 20 21 81 0
22 23 39 40 0
9 45 -53 0
-37 -83 0
64 65 88 89 0
9 10 -35 45 0
-37 -89 0
75 76 -77 93 0
-38 -92 0
-39 -51 0
-40 -52 0
-22 67 77 78 0
-39 -54 0
-40 -55 0
56 57 73 74 0
98 99 106 107 0
-39 -106 0
-40 -107 0
34 35 64 65 0
-39 -108 0
-40 -109 0
37 -68 82 83 0
-60 66 91 92 0
-42 -46 0
1 2 18 19 0
-41 -84 0
-42 -85 0
-41 -96 0
-42 -97 0
69 70 71 72 0
-43 -86 0
-44 -87 0
-35 45 53 -104 0
-43 -104 0
-44 -105 0
28 29 98 99 0
-15 24 25 38 0
-26 46 82 83 0
11 12 13 14 0
-1 66 91 92 0
-46 -83 0
26 27 49 50 0
-47 -64 0
-48 -65 0
73 74 79 80 0
-47 -68 0
7 8 -75 81 0
22 23 49 50 0
-47 -96 0
-48 -97 0
-47 -100 0
-48 -101 0
13 14 51 52 0
-49 -58 0
-50 -59 0
-49 -108 0
-50 -109 0
56 57 82 83 0
-51 -86 0
-52 -87 0
-52 -93 0
56 57 91 92 0
-51 -96 0
-52 -97 0
1 2 94 95 0
-53 -105 0
5 6 84 85 0
-54 -73 0
-55 -74 0
-62 67 77 78 0
-54 -75 0
-55 -76 0
-54 -86 0
-55 -87 0
28 29 58 59 0
-56 -73 0
-57 -74 0
-56 -82 0
-57 -83 0
58 59 69 70 0
-56 -84 0
-57 -85 0
-56 -91 0
-57 -92 0
58 59 60 61 0
-58 -60 0
-59 -61 0
9 10 108 109 0
-58 -69 0
-59 -70 0
26 27 60 61 0
-58 -96 0
-59 -97 0
-58 -110 0
-59 -111 0
7 8 62 63 0
-60 -64 0
-61 -65 0
62 63 86 87 0
47 48 68 -80 0
-61 -66 0
32 33 75 76 0
-61 -90 0
-60 -98 0
-61 -99 0
47 48 96 97 0
-63 -67 0
-62 -75 0
-63 -76 0
24 25 77 78 0
-62 -86 0
-63 -87 0
39 40 108 109 0
37 68 -80 -88 0
-64 -71 0
-65 -72 0
-15 38 91 92 0
-64 -82 0
-65 -83 0
37 -48 68 -88 0
-64 -88 0
-65 -89 0
3 4 49 50 0
-37 47 48 68 0
-66 -92 0
37 68 -80 -82 0
-67 -78 0
-68 -79 0
7 8 -20 81 0
58 59 96 97 0
-69 -71 0
-70 -72 0
51 52 96 97 0
-69 -106 0
-70 -107 0
-11 90 110 111 0
-71 -100 0
-72 -101 0
-9 -10 45 0
-71 -110 0
-72 -111 0
56 57 84 85 0
-73 -77 0
-74 -78 0
-73 -79 0
-74 -80 0
73 74 77 78 0
-73 -110 0
-74 -111 0
13 14 41 42 0
-11 60 61 90 0
-76 -81 0
104 105 110 111 0
-75 -82 0
-76 -83 0
-76 -93 0
100 101 102 103 0
-78 -93 0
79 80 86 87 0
-79 -86 0
-80 -87 0
49 50 108 109 0
-79 -98 0
-80 -99 0
1 2 7 8 0
-84 -94 0
-85 -95 0
37 -48 68 -82 0
-84 -110 0
-85 -111 0
24 25 104 105 0
-86 -102 0
-87 -103 0
-86 -110 0
-87 -111 0
24 25 34 35 0
-88 -98 0
-89 -99 0
18 19 94 95 0
-77 -78 0
-90 -111 0
73 74 110 111 0
-91 -108 0
-92 -109 0
9 10 17 -64 0
28 29 108 109 0
-94 -98 0
-95 -99 0
-94 -100 0
-95 -101 0
54 55 75 76 0
9 10 17 -22 0
60 61 98 99 0
-96 -108 0
-97 -109 0
88 89 98 99 0
-98 -106 0
-99 -107 0
-100 -102 0
-101 -103 0
13 14 106 107 0
-104 -110 0
-105 -111 0
